Code/Rooms/2nwalls20-14.dzn
n = 20;

R =
[|0,0,0,0,0,0,0,0,5,5,5,5,5,4,0,0,0,0,0,0,
 |8,0,0,0,2,0,0,0,0,0,0,0,2,4,0,0,0,0,0,0,
 |8,0,0,0,2,0,0,0,6,0,0,0,2,4,0,0,0,0,0,0,
 |8,0,0,2,2,10,0,0,6,0,0,0,0,4,0,0,0,0,0,0,
 |8,0,0,0,0,10,0,0,6,0,0,0,0,6,6,6,6,6,6,0,
 |8,0,5,0,0,10,0,0,6,0,0,0,1,0,0,4,4,4,4,0,
 |8,0,5,0,0,10,0,0,6,0,0,0,0,0,0,0,0,2,2,0,
 |8,0,5,0,0,10,0,0,6,0,0,0,0,9,4,4,4,4,0,7,
 |8,0,5,0,4,10,0,0,0,4,4,4,4,9,0,0,2,0,0,7,
 |0,0,5,1,4,10,0,0,0,0,0,0,6,9,8,1,2,0,0,7,
 |0,0,0,0,4,10,0,0,0,1,0,0,6,9,8,0,0,0,3,7,
 |0,0,0,0,4,10,0,0,0,0,0,0,6,9,8,0,0,0,3,7,
 |0,5,0,0,0,10,0,3,0,0,0,0,6,9,8,0,0,0,3,7,
 |0,5,3,3,3,1,0,3,0,0,0,0,6,9,8,5,0,0,0,7,
 |0,5,0,0,0,0,0,3,0,0,0,3,6,9,8,5,2,2,0,0,
 |0,5,3,0,0,0,0,0,0,0,0,3,0,9,8,5,0,4,0,0,
 |1,5,3,0,0,0,0,0,0,0,0,3,0,0,8,5,0,4,0,0,
 |0,0,3,0,3,3,3,0,0,0,0,3,3,3,0,5,0,4,0,0,
 |0,0,0,0,0,0,0,8,8,8,8,8,8,8,8,0,0,4,0,0,
 |8,8,8,8,8,8,8,8,0,0,0,0,0,0,2,2,0,0,0,0,
 |];

