Code/Walks/2nwalls20-14.txt
=====UNSATISFIABLE=====
% time elapsed: 1.54 s
